NAME : portcgen-17-10
COMMENT : portcgen N=17, seed=10
TYPE : TSP
DIMENSION : 17
EDGE_WEIGHT_TYPE : EUC_2D
NODE_COORD_SECTION
1 -230428 384595
2 252403 169629
3 102839 103490
4 307293 -112837
5 16265 -67463
6 -47146 -10922
7 249942 56165
8 94770 108228
9 -377378 16729
10 -253359 241645
11 65772 -282047
12 -70185 84597
13 -277694 -237211
14 -155317 248978
15 123457 -92022
16 -293769 -150796
17 341501 30495
